Version identifier: 12.10.0.0 | 2019-11-26 | 843d4de
CPXPARAM_WorkMem                                 28672
Tried aggregator 2 times.
Aggregator did 20 substitutions.
Reduced MIP has 73 rows, 90 columns, and 333 nonzeros.
Reduced MIP has 90 binaries, 0 generals, 0 SOSs, and 0 indicators.
Presolve time = 0,00 sec. (0,31 ticks)
Found incumbent of value 303,000000 after 0,00 sec. (0,60 ticks)
Probing time = 0,00 sec. (0,10 ticks)
Tried aggregator 1 time.
Detecting symmetries...
MIP Presolve eliminated 6 rows and 0 columns.
MIP Presolve added 12 rows and 0 columns.
Reduced MIP has 79 rows, 90 columns, and 339 nonzeros.
Reduced MIP has 90 binaries, 0 generals, 0 SOSs, and 0 indicators.
Presolve time = 0,00 sec. (0,38 ticks)
Probing time = 0,00 sec. (0,10 ticks)
Clique table members: 223.
MIP emphasis: balance optimality and feasibility.
MIP search method: dynamic search.
Parallel mode: deterministic, using up to 16 threads.
Root relaxation solution time = 0,00 sec. (0,15 ticks)

        Nodes                                         Cuts/
   Node  Left     Objective  IInf  Best Integer    Best Bound    ItCnt     Gap

*     0+    0                          303,0000        0,0000           100,00%
*     0+    0                          220,0000        0,0000           100,00%
      0     0      101,0000    67      220,0000      101,0000       23   54,09%
*     0+    0                          215,0000      101,0000            53,02%
      0     0      101,0000    67      215,0000      Cuts: 62       51   53,02%
      0     0      101,0000    67      215,0000     Cuts: 114       88   53,02%
*     0+    0                          206,0000      101,0000            50,97%
*     0+    0                          204,0000      101,0000            50,49%
      0     2      116,9862    49      204,0000      122,2048      107   40,10%
Elapsed time = 0,04 sec. (8,95 ticks, tree = 0,02 MB, solutions = 5)

Clique cuts applied:  18
Cover cuts applied:  92
Mixed integer rounding cuts applied:  1
Zero-half cuts applied:  2

Root node processing (before b&c):
  Real time             =    0,03 sec. (8,90 ticks)
Parallel b&c, 16 threads:
  Real time             =    0,02 sec. (6,81 ticks)
  Sync time (average)   =    0,01 sec.
  Wait time (average)   =    0,00 sec.
                          ------------
Total (root+branch&cut) =    0,05 sec. (15,72 ticks)
